#####COMMON SYMULATIONS SETTINGS#####

variable    T equal 450.0
variable    dt equal 0.001

variable    ambpres equal 1.01325
variable    ThermoOut equal 1000

bond_style harmonic
angle_style harmonic
dihedral_style multi/harmonic
special_bonds lj 0.0 0.0 0.5 coul 0.0 0.0 0.833

bond_coeff 1  13.0481 1.5375
bond_coeff 2  14.3364 1.0969

angle_coeff 1  2.72762 111.51
angle_coeff 2  1.70855 107.58
angle_coeff 3  2.00777 109.80

dihedral_coeff 1  0.00780554 -0.0234166 0.0 0.031222 0.0
dihedral_coeff 2  0.00693826 -0.0208148 0.0 0.027753 0.0
dihedral_coeff 3  0.00650462 -0.0195138 0.0 0.026019 0.0


pair_style hybrid tersoff lj/cut/coul/long 9.0 9.0
pair_modify tail yes mix arithmetic

pair_coeff 1 1 lj/cut/coul/long 0.00474404   3.3996700
pair_coeff 2 2 lj/cut/coul/long 0.00068082   2.6495300
#lj interactions for graphene-paraffin
pair_coeff 1 3 lj/cut/coul/long 0.00464914   3.62533
pair_coeff 2 3 lj/cut/coul/long 0.00176123   3.25026
pair_coeff * * tersoff SiCGe.tersoff NULL NULL C

kspace_style pppm 1.0e-5

timestep     ${dt}
thermo       ${ThermoOut}