read_restart  ../02_equilibrate/s05_NPTeq4.lmprst
include ./00_setup_system.lmp

variable dir index x        # the dimension along which to apply the heat flux
variable lnum equal 20      # number of slices along the selected dimension
variable freq equal 200     # how meny steps between each temperature exchange
variable swapn equal 3      # number of pairs of atoms between which kinetic energy will be exchanged

variable ns_of_eq equal 2.0 # 2.0
variable ns_for_k equal 3.0 # 3.0

##################### SETUP CALCULATIONS, you should not need to change anything below this point

if "${dir} == x" then &
  "variable Lb equal lx" &
  "variable area equal ly*lz" &
elif "${dir} == y" &
  "variable Lb equal ly" &
  "variable area equal lx*lz" &
elif "${dir} == z" &
  "variable Lb equal lz" &
  "variable area equal lx*ly" &
else &
  "print 'you must select x/y/z as direction...'" &
  "quit 1"

variable middleval equal floor(${lnum}/2)+1
variable lsize equal ${Lb}/${lnum}

# group paraffinC type 1
# group paraffinH type 2
# group grapheneC type 3
group CC type 1 3

# assign to each atom an ID based on the chunk it is in
compute chunkID all chunk/atom bin/1d ${dir} lower ${lsize} units box

########################### EQUILIBRATE THE HEAT FLUX #########################
variable step string "s01_eq_heat_flux"
log  ${step}.dir_${dir}.lmplog
print "NOTE: Heat flux applyied in the ${dir}-direction"
print "NOTE: The middle chunk is ${middleval}/${lnum}"
reset_timestep 0
fix fix_move all nvt temp ${T} ${T} $(100.0*dt)
#fix fix_move all nve

########## COMPUTE THE TEMPERATURE PROFILE 
fix temp_profile all ave/chunk 10 100 1000 chunkID temp file ${step}.T_profile_${dir}.dat

# compute difference in T between central and external layer
variable T_diff equal f_temp_profile[${middleval}][3]-f_temp_profile[1][3]

########## use M-P algorithm to exchange KE, returns the cumulative KE transferred
fix transf_ek CC thermal/conductivity ${freq} ${dir} ${lnum} swap ${swapn}

fix aveTdiff all ave/time 1 1 1000 v_T_diff ave running

thermo_style custom step time temp etotal f_transf_ek v_T_diff f_aveTdiff v_Lb v_area

run $(v_ns_of_eq/0.001/v_dt)
unfix temp_profile
unfix aveTdiff

########################### COMPUTE KAPPA #########################
variable step string "s02_compute_kappa"
log  ${step}.dir_${dir}.lmplog
reset_timestep 0

# reset the temp_profile, to produce a new data file
fix temp_profile all ave/chunk 10 100 1000 chunkID temp file ${step}.T_profile_${dir}.dat

# compute difference in T between central and external layer
variable T_diff equal f_temp_profile[${middleval}][3]-f_temp_profile[1][3]

# reset fix thermal/conductivity to zero energy accumulation
fix transf_ek CC thermal/conductivity ${freq} ${dir} ${lnum} swap ${swapn}

fix aveTdiff all ave/time 1 1 1000 v_T_diff ave running

thermo_style custom step time temp etotal f_transf_ek v_T_diff f_aveTdiff v_Lb v_area

run $(v_ns_for_k/0.001/v_dt)
