







read_restart  s01_NVTeq1.lmprst
include 00_setup_system.lmp

thermo_style custom step temp ebond eangle edihed eimp epair evdwl ecoul elong etail pe vol density lx ly lz 

variable step string "s02_NPTeq1"
variable nsToRun equal 0.01

fix fix_move all npt temp ${T} ${T} $(100.0*dt) aniso 0.0 $(v_ambpres/2) $(1000.0*v_dt) nreset 10000
dump dumpXTC all xtc     $(v_ThermoOut*10)  ${step}.xtc
dump dumpTRJ all custom  $(v_ThermoOut*10*5)  ${step}.lammpstrj id type x y z vx vy vz ix iy iz 
log  ${step}.lmplog  
run $(v_nsToRun/0.001/v_dt)
write_restart 	${step}.lmprst
